************************************************************************
file with basedata            : md373_.bas
initial value random generator: 454334768
************************************************************************
projects                      :  1
jobs (incl. supersource/sink ):  22
horizon                       :  160
RESOURCES
  - renewable                 :  2   R
  - nonrenewable              :  2   N
  - doubly constrained        :  0   D
************************************************************************
PROJECT INFORMATION:
pronr.  #jobs rel.date duedate tardcost  MPM-Time
    1     20      0       34       15       34
************************************************************************
PRECEDENCE RELATIONS:
jobnr.    #modes  #successors   successors
   1        1          3           2   3   4
   2        3          3           6  12  21
   3        3          2           5   7
   4        3          2          10  17
   5        3          3           6   8  17
   6        3          3          10  13  19
   7        3          1          15
   8        3          2           9  11
   9        3          3          12  14  19
  10        3          1          18
  11        3          2          16  21
  12        3          3          13  15  18
  13        3          1          16
  14        3          3          15  18  21
  15        3          1          16
  16        3          1          20
  17        3          2          19  20
  18        3          1          20
  19        3          1          22
  20        3          1          22
  21        3          1          22
  22        1          0        
************************************************************************
REQUESTS/DURATIONS:
jobnr. mode duration  R 1  R 2  N 1  N 2
------------------------------------------------------------------------
  1      1     0       0    0    0    0
  2      1     1       9    6    9    9
         2     7       8    5    9    8
         3    10       8    5    8    6
  3      1     8       6    7    5   10
         2     9       6    6    1    9
         3     9       3    6    4    8
  4      1     5       5    7    8    9
         2     7       4    6    7    5
         3     8       4    5    4    3
  5      1     4       4    8    6    7
         2     5       3    7    5    5
         3    10       3    5    4    1
  6      1     9       6    7    5    8
         2    10       6    5    5    6
         3    10       6    6    4    4
  7      1     1       3    4    5    8
         2     1       4    4    4    6
         3     3       3    3    4    1
  8      1     6       8    9    5    8
         2     9       8    9    5    5
         3    10       8    9    5    4
  9      1     7       4    3    4    5
         2    10       2    2    3    3
         3    10       3    2    2    3
 10      1     3      10    6    8    3
         2     4       7    4    7    3
         3     8       5    3    6    3
 11      1     6       9    7    6    8
         2     6       7    7    6    9
         3     8       3    6    5    7
 12      1     1      10   10    2    7
         2     5       9    7    1    6
         3     8       7    6    1    2
 13      1     2       5   10    7    9
         2     6       3   10    7    8
         3     7       1    9    7    6
 14      1     3       3    6    2    4
         2     4       3    6    1    4
         3     7       3    5    1    3
 15      1     4       5    2    7    7
         2     8       3    1    7    6
         3     9       3    1    6    6
 16      1     1       9    6   10    8
         2     4       9    5    9    8
         3     6       8    4    9    7
 17      1     7       7    9    5    6
         2     8       6    8    5    5
         3    10       5    8    5    4
 18      1     5       8    7    6    7
         2     5       8    4    7    7
         3     8       8    1    5    4
 19      1     1       3    3    9    6
         2     2       2    1    8    6
         3     2       3    1    7    6
 20      1     1       7    8    2    5
         2     1       9    8    2    4
         3     9       4    7    2    2
 21      1     2       9    8    5    2
         2     6       8    8    3    2
         3     8       4    7    3    2
 22      1     0       0    0    0    0
************************************************************************
RESOURCEAVAILABILITIES:
  R 1  R 2  N 1  N 2
   13   13  110  123
************************************************************************
MAXIMAL LAGS:
from  to  type  delay
    1   22   ES      0
    1    2   ES      0
    2   22   ES      0
    1    3   ES      0
    3   22   ES      0
    1    4   ES      0
    4   22   ES      0
    1    5   ES      0
    5   22   ES      0
    1    6   ES      0
    6   22   ES      0
    1    7   ES      0
    7   22   ES      0
    1    8   ES      0
    8   22   ES      0
    1    9   ES      0
    9   22   ES      0
    1   10   ES      0
   10   22   ES      0
    1   11   ES      0
   11   22   ES      0
    1   12   ES      0
   12   22   ES      0
    1   13   ES      0
   13   22   ES      0
    1   14   ES      0
   14   22   ES      0
    1   15   ES      0
   15   22   ES      0
    1   16   ES      0
   16   22   ES      0
    1   17   ES      0
   17   22   ES      0
    1   18   ES      0
   18   22   ES      0
    1   19   ES      0
   19   22   ES      0
    1   20   ES      0
   20   22   ES      0
    1   21   ES      0
   21   22   ES      0
    1   22   ES      0
    2    6   SS      9
    2    6   SE      9
    2    6   ES     -1
    2    6   EE      8
    2   12   SS     -1
    2   12   SE      2
    2   12   ES     -9
    2   12   EE     -5
    2   21   SS     -9
    2   21   SE      8
    2   21   ES      7
    2   21   EE      5
    3    5   SS     -4
    3    5   SE     -4
    3    5   ES     -4
    3    5   EE     11
    3    7   SS      7
    3    7   SE      0
    3    7   ES    -10
    3    7   EE      1
    4   10   SS     -5
    4   10   SE      6
    4   10   ES     -2
    4   10   EE     -7
    4   17   SS     -2
    4   17   SE      3
    4   17   ES     -4
    4   17   EE      3
    5    6   SS      3
    5    6   SE      3
    5    6   ES     -4
    5    6   EE     -5
    5    8   SS      2
    5    8   SE      8
    5    8   ES     -7
    5    8   EE    -10
    5   17   SS     -8
    5   17   SE     -5
    5   17   ES      4
    5   17   EE     -4
    6   10   SS      4
    6   10   SE      2
    6   10   ES      2
    6   10   EE     -1
    6   13   SS      0
    6   13   SE    -10
    6   13   ES      7
    6   13   EE    -10
    6   19   SS      5
    6   19   SE     12
    6   19   ES      6
    6   19   EE      4
    7   15   SS      3
    7   15   SE     -2
    7   15   ES     -1
    7   15   EE      3
    8    9   SS      6
    8    9   SE      9
    8    9   ES      5
    8    9   EE     -5
    8   11   SS     -8
    8   11   SE     11
    8   11   ES     -7
    8   11   EE      7
    9   12   SS    -11
    9   12   SE      8
    9   12   ES     12
    9   12   EE    -12
    9   14   SS    -11
    9   14   SE     -2
    9   14   ES      6
    9   14   EE    -12
    9   19   SS     -2
    9   19   SE     -3
    9   19   ES     -1
    9   19   EE     11
   10   18   SS     -9
   10   18   SE      2
   10   18   ES     -5
   10   18   EE      0
   11   16   SS     -2
   11   16   SE      5
   11   16   ES     -1
   11   16   EE     -3
   11   21   SS    -11
   11   21   SE     -2
   11   21   ES     11
   11   21   EE      6
   12   13   SS    -10
   12   13   SE      6
   12   13   ES     -5
   12   13   EE     -4
   12   15   SS     -3
   12   15   SE     -7
   12   15   ES     -3
   12   15   EE      1
   12   18   SS     -8
   12   18   SE      9
   12   18   ES     11
   12   18   EE      3
   13   16   SS     -9
   13   16   SE     -8
   13   16   ES     -6
   13   16   EE      7
   14   15   SS     -5
   14   15   SE     -5
   14   15   ES    -11
   14   15   EE     12
   14   18   SS     12
   14   18   SE      1
   14   18   ES     -2
   14   18   EE     -5
   14   21   SS     -6
   14   21   SE     -1
   14   21   ES     -6
   14   21   EE     10
   15   16   SS     -1
   15   16   SE      7
   15   16   ES      3
   15   16   EE     -2
   16   20   SS      6
   16   20   SE      9
   16   20   ES      5
   16   20   EE    -12
   17   19   SS      6
   17   19   SE      0
   17   19   ES     -7
   17   19   EE      4
   17   20   SS     -7
   17   20   SE     11
   17   20   ES     10
   17   20   EE     -9
   18   20   SS      7
   18   20   SE      0
   18   20   ES    -12
   18   20   EE      4
************************************************************************
